NAME: rue_25_4
TYPE: TSP
DIMENSION: 25
EDGE_WEIGHT_TYPE: EUC_2D
NODE_COORD_SECTION
1 71 15
2 92 93
3 8 59
4 38 75
5 57 23
6 51 4
7 66 92
8 13 72
9 72 56
10 20 84
11 32 29
12 75 14
13 56 38
14 84 83
15 60 51
16 92 80
17 74 68
18 97 31
19 50 61
20 54 45
21 74 47
22 9 88
23 53 44
24 31 36
25 80 99
